# Solution for model transpiration_srl_ilp
# Objective value = 4.4568635976501723e+00
Z_360_0_0 0
Z_360_0_1 0
Z_360_0_2 0
Z_360_0_3 0
Z_360_0_4 1
Z_153_0_0 0
Z_153_0_1 0
Z_153_0_2 0
Z_153_0_3 0
Z_153_0_4 1
Z_473_0_0 0
Z_473_0_1 0
Z_473_0_2 0
Z_473_0_3 0
Z_473_0_4 1
Z_115_0_0 0
Z_115_0_1 0
Z_115_0_2 0
Z_115_0_3 0
Z_115_0_4 1
Z_445_0_0 0
Z_445_0_1 0
Z_445_0_2 0
Z_445_0_3 0
Z_445_0_4 1
Z_412_1_0 0
Z_412_1_1 0
Z_412_1_2 1
Z_412_1_3 0
Z_412_1_4 0
